%chk=C:\Users\chemistry\Documents\Gruppe H\inputOptimierung2.chk
# opt freq hf/sto-3g geom=connectivity

Title Card Required

-1 1
 C                  1.54914528   -2.11538458    0.00000000
 H                  1.87884628   -1.66026958    0.92382600
 H                  1.87900128   -3.14315358   -0.06802800
 H                  1.87837828   -1.54260158   -0.85610900
 Br                -0.42145872   -2.11474158    0.00031800
 Cl                 4.14914328   -2.11467758    0.00034300

 1 2 1.0 3 1.0 4 1.0 5 1.0
 2
 3
 4
 5
 6

